(set-info :smt-lib-version 2.6)
(set-info :category "crafted")
(set-logic QF_FF)
(define-sort FF0 () (_ FiniteField 52435875175126190479447740508185965837690552500527637822603658699938581184513))
(declare-fun i () Bool)
(declare-fun e () Bool)
(declare-fun c () Bool)
(declare-fun a () Bool)
(declare-fun d () Bool)
(declare-fun g () Bool)
(declare-fun b () Bool)
(declare-fun l () Bool)
(declare-fun h () Bool)
(declare-fun k () Bool)
(declare-fun j () Bool)
(declare-fun f () Bool)
(declare-fun out () FF0)
(declare-fun _189 () FF0)
(declare-fun _129 () FF0)
(declare-fun _188 () FF0)
(declare-fun _141 () FF0)
(declare-fun _140 () FF0)
(declare-fun _187 () FF0)
(declare-fun _143 () FF0)
(declare-fun _186 () FF0)
(declare-fun _150 () FF0)
(declare-fun _149 () FF0)
(declare-fun _185 () FF0)
(declare-fun _162 () FF0)
(declare-fun _161 () FF0)
(declare-fun _184 () FF0)
(declare-fun _164 () FF0)
(declare-fun _183 () FF0)
(declare-fun _97 () FF0)
(declare-fun _96 () FF0)
(declare-fun _182 () FF0)
(declare-fun _167 () FF0)
(declare-fun _181 () FF0)
(declare-fun _170 () FF0)
(declare-fun _180 () FF0)
(declare-fun _175 () FF0)
(declare-fun _174 () FF0)
(declare-fun _179 () FF0)
(declare-fun _178 () FF0)
(declare-fun _145 () FF0)
(declare-fun _177 () FF0)
(declare-fun _110 () FF0)
(declare-fun _90 () FF0)
(declare-fun _17 () FF0)
(declare-fun _105 () FF0)
(declare-fun _99 () FF0)
(declare-fun _53 () FF0)
(declare-fun _169 () FF0)
(declare-fun _88 () FF0)
(declare-fun _86 () FF0)
(declare-fun _91 () FF0)
(declare-fun _3 () FF0)
(declare-fun _156 () FF0)
(declare-fun _155 () FF0)
(declare-fun _6 () FF0)
(declare-fun _60 () FF0)
(declare-fun _64 () FF0)
(declare-fun _14 () FF0)
(declare-fun _87 () FF0)
(declare-fun _26 () FF0)
(declare-fun _22 () FF0)
(declare-fun _11 () FF0)
(declare-fun _135 () FF0)
(declare-fun _133 () FF0)
(declare-fun _136 () FF0)
(declare-fun _58 () FF0)
(declare-fun _134 () FF0)
(declare-fun _130 () FF0)
(declare-fun _132 () FF0)
(declare-fun _120 () FF0)
(declare-fun _28 () FF0)
(declare-fun _42 () FF0)
(declare-fun _128 () FF0)
(declare-fun _127 () FF0)
(declare-fun _125 () FF0)
(declare-fun _124 () FF0)
(declare-fun _49 () FF0)
(declare-fun _71 () FF0)
(declare-fun _119 () FF0)
(declare-fun _10 () FF0)
(declare-fun _118 () FF0)
(declare-fun _4 () FF0)
(declare-fun _117 () FF0)
(declare-fun _69 () FF0)
(declare-fun _68 () FF0)
(declare-fun _116 () FF0)
(declare-fun _115 () FF0)
(declare-fun _92 () FF0)
(declare-fun _114 () FF0)
(declare-fun _113 () FF0)
(declare-fun _112 () FF0)
(declare-fun _32 () FF0)
(declare-fun _111 () FF0)
(declare-fun _5 () FF0)
(declare-fun _109 () FF0)
(declare-fun _108 () FF0)
(declare-fun _83 () FF0)
(declare-fun _104 () FF0)
(declare-fun _103 () FF0)
(declare-fun _102 () FF0)
(declare-fun _101 () FF0)
(declare-fun _100 () FF0)
(declare-fun _51 () FF0)
(declare-fun _57 () FF0)
(declare-fun _1 () FF0)
(declare-fun _85 () FF0)
(declare-fun _0 () FF0)
(declare-fun _84 () FF0)
(declare-fun _21 () FF0)
(declare-fun _2 () FF0)
(declare-fun _82 () FF0)
(declare-fun _81 () FF0)
(declare-fun _12 () FF0)
(declare-fun _80 () FF0)
(declare-fun _16 () FF0)
(declare-fun _79 () FF0)
(declare-fun _78 () FF0)
(declare-fun _77 () FF0)
(declare-fun _9 () FF0)
(declare-fun _76 () FF0)
(declare-fun _75 () FF0)
(declare-fun _13 () FF0)
(declare-fun _74 () FF0)
(declare-fun _8 () FF0)
(declare-fun _73 () FF0)
(declare-fun _23 () FF0)
(declare-fun _72 () FF0)
(declare-fun _35 () FF0)
(declare-fun _47 () FF0)
(declare-fun _46 () FF0)
(declare-fun _39 () FF0)
(declare-fun _63 () FF0)
(declare-fun _56 () FF0)
(declare-fun _20 () FF0)
(declare-fun _55 () FF0)
(declare-fun _41 () FF0)
(declare-fun _40 () FF0)
(declare-fun _7 () FF0)
(declare-fun _38 () FF0)
(declare-fun _37 () FF0)
(declare-fun _36 () FF0)
(declare-fun _34 () FF0)
(declare-fun _33 () FF0)
(declare-fun _31 () FF0)
(declare-fun _30 () FF0)
(declare-fun _29 () FF0)
(declare-fun _27 () FF0)
(declare-fun _25 () FF0)
(declare-fun _24 () FF0)
(declare-fun _19 () FF0)
(assert 
  (let ((let0 i))
  (let ((let1 e))
  (let ((let2 c))
  (let ((let3 a))
  (let ((let4 (and let3 let2)))
  (let ((let5 (=> let4 let1)))
  (let ((let6 (= let5 let0)))
  (let ((let7 (=> let6 let0)))
  (let ((let8 d))
  (let ((let9 g))
  (let ((let10 (= let8 let9)))
  (let ((let11 b))
  (let ((let12 l))
  (let ((let13 (and let12 let11 let10)))
  (let ((let14 h))
  (let ((let15 k))
  (let ((let16 (and let15 let8)))
  (let ((let17 j))
  (let ((let18 (=> let12 let17)))
  (let ((let19 (=> let17 let14)))
  (let ((let20 (or let19 let19 let18 let16)))
  (let ((let21 (or let20 let14 let13)))
  (let ((let22 f))
  (let ((let23 (or let1 let2 let11 let22 let3)))
  (let ((let24 (or let15 let9 let23 let22)))
  (let ((let25 (or let24 let21 let21 let1 let8)))
  (let ((let26 (and let14 let25 let7 let0)))
  (let ((let27 (ite let3 let24 let16)))
  (let ((let28 (= let23 let13)))
  (let ((let29 (= let28 let27)))
  (let ((let30 (=> let6 let18)))
  (let ((let31 (not let30)))
  (let ((let32 (and let31 let29 let13 let25)))
  (let ((let33 (= let32 let22)))
  (let ((let34 (= let5 let33)))
  (let ((let35 (not let9)))
  (let ((let36 (and let35 let29 let34)))
  (let ((let37 (ite let27 let25 let24)))
  (let ((let38 (=> let37 let37)))
  (let ((let39 (or let4 let30 let28 let19 let0 let5 let10 let17 let7 let23 let7 let4 let31)))
  (let ((let40 (and let2 let16 let3 let39)))
  (let ((let41 (=> let40 let21)))
  (let ((let42 (= let20 let41)))
  (let ((let43 (=> let11 let26)))
  (let ((let44 (=> let18 let39)))
  (let ((let45 (or let32 let32)))
  (let ((let46 (ite let6 let40 let45)))
  (let ((let47 (=> let29 let44)))
  (let ((let48 (or let47 let46 let44 let26 let43 let42)))
  (let ((let49 (or let48 let48)))
  (let ((let50 (not let12)))
  (let ((let51 (not let28)))
  (let ((let52 (or let39 let45 let12 let43)))
  (let ((let53 (and let22 let52 let23 let51 let50 let45 let49 let37 let1 let15 let31)))
  (let ((let54 (ite let53 let38 let36)))
  (let ((let55 (and let51 let54 let20 let26)))
  (let ((let56 (=> let47 let33)))
  (let ((let57 (not let41)))
  (let ((let58 (or let21 let34 let53)))
  (let ((let59 (=> let58 let57)))
  (let ((let60 (=> let59 let56)))
  (let ((let61 (=> let33 let42)))
  (let ((let62 (ite let58 let61 let60)))
  (let ((let63 (=> let57 let50)))
  (let ((let64 (not let42)))
  (let ((let65 (or let18 let64)))
  (let ((let66 (ite let20 let65 let35)))
  (let ((let67 (ite let46 let57 let6)))
  (let ((let68 (ite let67 let36 let34)))
  (let ((let69 (= let35 let67)))
  (let ((let70 (not let46)))
  (let ((let71 (= let8 let44)))
  (let ((let72 (and let40 let64 let65)))
  (let ((let73 (ite let47 let30 let49)))
  (let ((let74 (or let43 let10 let52 let65)))
  (let ((let75 (and let74 let73 let72 let71 let70 let69 let68 let66 let63 let62 let55)))
  (let ((let76 out))
  (let ((let77 (as ff1 FF0)))
  (let ((let78 (= let77 let76)))
  (let ((let79 (= let78 let75)))
  (let ((let80 (as ff0 FF0)))
  (let ((let81 (= let80 let76)))
  (let ((let82 (or let78 let81)))
  (let ((let83 (and let82 let79)))
  (let ((let84 _189))
  (let ((let85 (= let84 let76)))
  (let ((let86 _129))
  (let ((let87 _188))
  (let ((let88 (ff.mul let87 let86)))
  (let ((let89 (= let88 let84)))
  (let ((let90 _141))
  (let ((let91 _140))
  (let ((let92 (ff.add let91 let90)))
  (let ((let93 _187))
  (let ((let94 (ff.mul let93 let92)))
  (let ((let95 (= let94 let87)))
  (let ((let96 _143))
  (let ((let97 _186))
  (let ((let98 (ff.mul let97 let96)))
  (let ((let99 (= let98 let93)))
  (let ((let100 _150))
  (let ((let101 _149))
  (let ((let102 (ff.add let101 let100)))
  (let ((let103 _185))
  (let ((let104 (ff.mul let103 let102)))
  (let ((let105 (= let104 let97)))
  (let ((let106 _162))
  (let ((let107 _161))
  (let ((let108 (ff.add let107 let106)))
  (let ((let109 _184))
  (let ((let110 (ff.mul let109 let108)))
  (let ((let111 (= let110 let103)))
  (let ((let112 (as ff52435875175126190479447740508185965837690552500527637822603658699938581184512 FF0)))
  (let ((let113 _164))
  (let ((let114 (ff.mul let113 let112)))
  (let ((let115 (ff.add let114 let77)))
  (let ((let116 _183))
  (let ((let117 (ff.mul let116 let115)))
  (let ((let118 (= let117 let109)))
  (let ((let119 _97))
  (let ((let120 (ff.mul let119 let112)))
  (let ((let121 _96))
  (let ((let122 (ff.mul let121 let112)))
  (let ((let123 (ff.add let122 let120 let77)))
  (let ((let124 _182))
  (let ((let125 (ff.mul let124 let123)))
  (let ((let126 (= let125 let116)))
  (let ((let127 _167))
  (let ((let128 (ff.mul let127 let112)))
  (let ((let129 (ff.add let128 let77)))
  (let ((let130 _181))
  (let ((let131 (ff.mul let130 let129)))
  (let ((let132 (= let131 let124)))
  (let ((let133 _170))
  (let ((let134 _180))
  (let ((let135 (ff.mul let134 let133)))
  (let ((let136 (= let135 let130)))
  (let ((let137 _175))
  (let ((let138 _174))
  (let ((let139 (ff.add let138 let137)))
  (let ((let140 _179))
  (let ((let141 (ff.mul let140 let139)))
  (let ((let142 (= let141 let134)))
  (let ((let143 (ff.mul let140 let112)))
  (let ((let144 _178))
  (let ((let145 _145))
  (let ((let146 (ff.add let145 let144 let143)))
  (let ((let147 (ff.mul let144 let145)))
  (let ((let148 (= let147 let146)))
  (let ((let149 (ff.mul let144 let112)))
  (let ((let150 _177))
  (let ((let151 _110))
  (let ((let152 (ff.add let151 let150 let149)))
  (let ((let153 (ff.mul let150 let151)))
  (let ((let154 (= let153 let152)))
  (let ((let155 (ff.mul let150 let112)))
  (let ((let156 _90))
  (let ((let157 _17))
  (let ((let158 (ff.mul let157 let112)))
  (let ((let159 (ff.add let158 let156 let155 let77)))
  (let ((let160 (ff.add let158 let77)))
  (let ((let161 (ff.mul let156 let160)))
  (let ((let162 (= let161 let159)))
  (let ((let163 _105))
  (let ((let164 _99))
  (let ((let165 (ff.mul let164 let112)))
  (let ((let166 (ff.add let165 let77)))
  (let ((let167 (ff.mul let166 let163)))
  (let ((let168 (= let167 let137)))
  (let ((let169 _53))
  (let ((let170 (ff.mul let164 let169)))
  (let ((let171 (= let170 let138)))
  (let ((let172 _169))
  (let ((let173 (ff.mul let172 let145)))
  (let ((let174 (= let173 let133)))
  (let ((let175 _88))
  (let ((let176 _86))
  (let ((let177 (ff.mul let176 let175)))
  (let ((let178 (= let177 let172)))
  (let ((let179 _91))
  (let ((let180 (ff.mul let179 let112)))
  (let ((let181 _3))
  (let ((let182 (ff.add let181 let180)))
  (let ((let183 (ff.mul let182 let182)))
  (let ((let184 (= let183 let127)))
  (let ((let185 _156))
  (let ((let186 (ff.mul let185 let112)))
  (let ((let187 _155))
  (let ((let188 (ff.mul let187 let112)))
  (let ((let189 _6))
  (let ((let190 (ff.mul let189 let112)))
  (let ((let191 (ff.add let190 let188 let186 let77)))
  (let ((let192 (ff.mul let191 let191)))
  (let ((let193 (= let192 let113)))
  (let ((let194 _60))
  (let ((let195 (ff.mul let194 let112)))
  (let ((let196 (ff.add let195 let77)))
  (let ((let197 (ff.add let188 let186 let77)))
  (let ((let198 (ff.mul let197 let196)))
  (let ((let199 (= let198 let106)))
  (let ((let200 _64))
  (let ((let201 (ff.add let187 let185)))
  (let ((let202 (ff.mul let201 let200)))
  (let ((let203 (= let202 let107)))
  (let ((let204 _14))
  (let ((let205 (ff.mul let204 let112)))
  (let ((let206 (ff.add let205 let77)))
  (let ((let207 (ff.mul let123 let206)))
  (let ((let208 (= let207 let185)))
  (let ((let209 _87))
  (let ((let210 (ff.mul let209 let112)))
  (let ((let211 (ff.add let210 let77)))
  (let ((let212 (ff.add let121 let119)))
  (let ((let213 (ff.mul let212 let211)))
  (let ((let214 (= let213 let187)))
  (let ((let215 (ff.add let190 let77)))
  (let ((let216 _26))
  (let ((let217 (ff.mul let216 let112)))
  (let ((let218 (ff.add let217 let77)))
  (let ((let219 (ff.mul let218 let215)))
  (let ((let220 (= let219 let100)))
  (let ((let221 (ff.mul let216 let145)))
  (let ((let222 (= let221 let101)))
  (let ((let223 (ff.mul let145 let112)))
  (let ((let224 _22))
  (let ((let225 (ff.add let224 let175 let223)))
  (let ((let226 (ff.mul let224 let175)))
  (let ((let227 (= let226 let225)))
  (let ((let228 (ff.mul let96 let112)))
  (let ((let229 _11))
  (let ((let230 (ff.mul let229 let112)))
  (let ((let231 (ff.add let230 let209 let228 let77)))
  (let ((let232 (ff.add let230 let77)))
  (let ((let233 (ff.mul let209 let232)))
  (let ((let234 (= let233 let231)))
  (let ((let235 _135))
  (let ((let236 _133))
  (let ((let237 (ff.mul let236 let112)))
  (let ((let238 (ff.add let237 let77)))
  (let ((let239 (ff.mul let238 let235)))
  (let ((let240 (= let239 let90)))
  (let ((let241 _136))
  (let ((let242 (ff.mul let236 let241)))
  (let ((let243 (= let242 let91)))
  (let ((let244 (ff.mul let241 let112)))
  (let ((let245 (ff.mul let175 let112)))
  (let ((let246 _58))
  (let ((let247 (ff.add let246 let245 let244 let77)))
  (let ((let248 (ff.add let245 let77)))
  (let ((let249 (ff.mul let246 let248)))
  (let ((let250 (= let249 let247)))
  (let ((let251 (ff.mul let235 let112)))
  (let ((let252 _134))
  (let ((let253 (ff.mul let252 let112)))
  (let ((let254 _130))
  (let ((let255 (ff.add let254 let253 let251 let77)))
  (let ((let256 (ff.add let253 let77)))
  (let ((let257 (ff.mul let256 let254)))
  (let ((let258 (= let257 let255)))
  (let ((let259 (as ff2 FF0)))
  (let ((let260 (ff.add let210 let237 let253 let259)))
  (let ((let261 (ff.mul let238 let211)))
  (let ((let262 (= let261 let260)))
  (let ((let263 _132))
  (let ((let264 _120))
  (let ((let265 (ff.add let264 let263 let237)))
  (let ((let266 (ff.mul let263 let264)))
  (let ((let267 (= let266 let265)))
  (let ((let268 (ff.mul let263 let112)))
  (let ((let269 _28))
  (let ((let270 (ff.add let269 let195 let268 let77)))
  (let ((let271 (ff.mul let269 let196)))
  (let ((let272 (= let271 let270)))
  (let ((let273 (ff.mul let254 let112)))
  (let ((let274 (ff.mul let246 let112)))
  (let ((let275 (ff.add let274 let165 let273 let259)))
  (let ((let276 (ff.add let274 let77)))
  (let ((let277 (ff.mul let166 let276)))
  (let ((let278 (= let277 let275)))
  (let ((let279 _42))
  (let ((let280 _128))
  (let ((let281 (ff.mul let280 let279)))
  (let ((let282 (= let281 let86)))
  (let ((let283 _127))
  (let ((let284 (ff.mul let283 let216)))
  (let ((let285 (= let284 let280)))
  (let ((let286 _125))
  (let ((let287 _124))
  (let ((let288 (ff.add let287 let286)))
  (let ((let289 _49))
  (let ((let290 (ff.mul let289 let288)))
  (let ((let291 (= let290 let283)))
  (let ((let292 (ff.mul let264 let112)))
  (let ((let293 (ff.add let292 let77)))
  (let ((let294 (ff.mul let293 let200)))
  (let ((let295 (= let294 let286)))
  (let ((let296 _71))
  (let ((let297 (ff.mul let264 let296)))
  (let ((let298 (= let297 let287)))
  (let ((let299 (ff.mul let169 let112)))
  (let ((let300 (ff.add let299 let77)))
  (let ((let301 _119))
  (let ((let302 (ff.mul let301 let300)))
  (let ((let303 (= let302 let264)))
  (let ((let304 _10))
  (let ((let305 _118))
  (let ((let306 (ff.mul let305 let304)))
  (let ((let307 (= let306 let301)))
  (let ((let308 _4))
  (let ((let309 _117))
  (let ((let310 (ff.mul let309 let308)))
  (let ((let311 (= let310 let305)))
  (let ((let312 _69))
  (let ((let313 _68))
  (let ((let314 (ff.add let313 let312)))
  (let ((let315 _116))
  (let ((let316 (ff.mul let315 let314)))
  (let ((let317 (= let316 let309)))
  (let ((let318 _115))
  (let ((let319 (ff.mul let318 let163)))
  (let ((let320 (= let319 let315)))
  (let ((let321 _92))
  (let ((let322 _114))
  (let ((let323 (ff.mul let322 let321)))
  (let ((let324 (= let323 let318)))
  (let ((let325 _113))
  (let ((let326 (ff.mul let325 let232)))
  (let ((let327 (= let326 let322)))
  (let ((let328 _112))
  (let ((let329 (ff.mul let328 let289)))
  (let ((let330 (= let329 let325)))
  (let ((let331 _32))
  (let ((let332 _111))
  (let ((let333 (ff.mul let332 let331)))
  (let ((let334 (= let333 let328)))
  (let ((let335 _5))
  (let ((let336 (ff.mul let335 let151)))
  (let ((let337 (= let336 let332)))
  (let ((let338 (ff.mul let151 let112)))
  (let ((let339 _109))
  (let ((let340 (ff.add let156 let339 let338)))
  (let ((let341 (ff.mul let339 let156)))
  (let ((let342 (= let341 let340)))
  (let ((let343 (ff.mul let339 let112)))
  (let ((let344 _108))
  (let ((let345 (ff.add let229 let344 let343)))
  (let ((let346 (ff.mul let344 let229)))
  (let ((let347 (= let346 let345)))
  (let ((let348 (ff.mul let344 let112)))
  (let ((let349 _83))
  (let ((let350 (ff.add let349 let321 let348)))
  (let ((let351 (ff.mul let349 let321)))
  (let ((let352 (= let351 let350)))
  (let ((let353 (ff.mul let163 let112)))
  (let ((let354 _104))
  (let ((let355 (ff.mul let354 let259)))
  (let ((let356 (ff.add let355 let353)))
  (let ((let357 (ff.mul let354 let354)))
  (let ((let358 (= let357 let356)))
  (let ((let359 (ff.mul let354 let112)))
  (let ((let360 _103))
  (let ((let361 (ff.add let245 let360 let359 let77)))
  (let ((let362 (ff.mul let360 let248)))
  (let ((let363 (= let362 let361)))
  (let ((let364 (ff.mul let360 let112)))
  (let ((let365 _102))
  (let ((let366 (ff.add let156 let365 let364)))
  (let ((let367 (ff.mul let365 let156)))
  (let ((let368 (= let367 let366)))
  (let ((let369 (ff.mul let365 let112)))
  (let ((let370 _101))
  (let ((let371 (ff.add let279 let370 let369)))
  (let ((let372 (ff.mul let370 let279)))
  (let ((let373 (= let372 let371)))
  (let ((let374 (ff.mul let370 let112)))
  (let ((let375 _100))
  (let ((let376 (ff.add let179 let375 let374)))
  (let ((let377 (ff.mul let375 let179)))
  (let ((let378 (= let377 let376)))
  (let ((let379 (ff.mul let375 let112)))
  (let ((let380 (ff.add let121 let119 let164 let379)))
  (let ((let381 (ff.mul let164 let212)))
  (let ((let382 (= let381 let380)))
  (let ((let383 _51))
  (let ((let384 (ff.add let383 let179 let165)))
  (let ((let385 (ff.mul let383 let179)))
  (let ((let386 (= let385 let384)))
  (let ((let387 (ff.mul let204 let321)))
  (let ((let388 (= let387 let119)))
  (let ((let389 (ff.mul let206 let176)))
  (let ((let390 (= let389 let121)))
  (let ((let391 (ff.mul let321 let112)))
  (let ((let392 _57))
  (let ((let393 (ff.mul let392 let259)))
  (let ((let394 (ff.add let393 let391)))
  (let ((let395 (ff.mul let392 let392)))
  (let ((let396 (= let395 let394)))
  (let ((let397 (ff.mul let224 let112)))
  (let ((let398 (ff.add let397 let349 let180 let77)))
  (let ((let399 (ff.add let397 let77)))
  (let ((let400 (ff.mul let399 let349)))
  (let ((let401 (= let400 let398)))
  (let ((let402 (ff.mul let156 let112)))
  (let ((let403 _1))
  (let ((let404 (ff.mul let403 let112)))
  (let ((let405 (ff.add let404 let279 let402 let77)))
  (let ((let406 (ff.add let404 let77)))
  (let ((let407 (ff.mul let406 let279)))
  (let ((let408 (= let407 let405)))
  (let ((let409 (ff.add let216 let210)))
  (let ((let410 (ff.mul let409 let409)))
  (let ((let411 (= let410 let175)))
  (let ((let412 (ff.mul let176 let112)))
  (let ((let413 (ff.add let269 let412 let210 let77)))
  (let ((let414 (ff.add let412 let77)))
  (let ((let415 (ff.mul let414 let269)))
  (let ((let416 (= let415 let413)))
  (let ((let417 _85))
  (let ((let418 (ff.mul let417 let349)))
  (let ((let419 (= let418 let176)))
  (let ((let420 _0))
  (let ((let421 _84))
  (let ((let422 (ff.mul let421 let420)))
  (let ((let423 (= let422 let417)))
  (let ((let424 _21))
  (let ((let425 _2))
  (let ((let426 (ff.mul let425 let424)))
  (let ((let427 (= let426 let421)))
  (let ((let428 (ff.mul let349 let112)))
  (let ((let429 _82))
  (let ((let430 (ff.add let299 let429 let428 let77)))
  (let ((let431 (ff.mul let429 let300)))
  (let ((let432 (= let431 let430)))
  (let ((let433 (ff.mul let429 let112)))
  (let ((let434 _81))
  (let ((let435 _12))
  (let ((let436 (ff.add let435 let434 let433)))
  (let ((let437 (ff.mul let434 let435)))
  (let ((let438 (= let437 let436)))
  (let ((let439 (ff.mul let434 let112)))
  (let ((let440 _80))
  (let ((let441 _16))
  (let ((let442 (ff.add let441 let440 let439)))
  (let ((let443 (ff.mul let440 let441)))
  (let ((let444 (= let443 let442)))
  (let ((let445 (ff.mul let440 let112)))
  (let ((let446 _79))
  (let ((let447 (ff.add let331 let446 let445)))
  (let ((let448 (ff.mul let446 let331)))
  (let ((let449 (= let448 let447)))
  (let ((let450 (ff.mul let446 let112)))
  (let ((let451 _78))
  (let ((let452 (ff.add let441 let451 let450)))
  (let ((let453 (ff.mul let451 let441)))
  (let ((let454 (= let453 let452)))
  (let ((let455 (ff.mul let451 let112)))
  (let ((let456 _77))
  (let ((let457 _9))
  (let ((let458 (ff.add let457 let456 let455)))
  (let ((let459 (ff.mul let456 let457)))
  (let ((let460 (= let459 let458)))
  (let ((let461 (ff.mul let456 let112)))
  (let ((let462 _76))
  (let ((let463 (ff.add let158 let462 let461 let77)))
  (let ((let464 (ff.mul let462 let160)))
  (let ((let465 (= let464 let463)))
  (let ((let466 (ff.mul let462 let112)))
  (let ((let467 _75))
  (let ((let468 _13))
  (let ((let469 (ff.add let468 let467 let466)))
  (let ((let470 (ff.mul let467 let468)))
  (let ((let471 (= let470 let469)))
  (let ((let472 (ff.mul let467 let112)))
  (let ((let473 _74))
  (let ((let474 _8))
  (let ((let475 (ff.add let474 let473 let472)))
  (let ((let476 (ff.mul let473 let474)))
  (let ((let477 (= let476 let475)))
  (let ((let478 (ff.mul let473 let112)))
  (let ((let479 _73))
  (let ((let480 _23))
  (let ((let481 (ff.add let480 let479 let478)))
  (let ((let482 (ff.mul let479 let480)))
  (let ((let483 (= let482 let481)))
  (let ((let484 (ff.mul let479 let112)))
  (let ((let485 _72))
  (let ((let486 (ff.mul let289 let112)))
  (let ((let487 (ff.add let486 let485 let484 let77)))
  (let ((let488 (ff.add let486 let77)))
  (let ((let489 (ff.mul let485 let488)))
  (let ((let490 (= let489 let487)))
  (let ((let491 (ff.mul let485 let112)))
  (let ((let492 (ff.add let435 let169 let491)))
  (let ((let493 (ff.mul let435 let169)))
  (let ((let494 (= let493 let492)))
  (let ((let495 (ff.mul let296 let112)))
  (let ((let496 (ff.add let495 let77)))
  (let ((let497 (ff.mul let312 let112)))
  (let ((let498 (ff.mul let313 let112)))
  (let ((let499 (ff.add let498 let497 let77)))
  (let ((let500 (ff.mul let499 let314)))
  (let ((let501 (= let500 let496)))
  (let ((let502 _35))
  (let ((let503 _47))
  (let ((let504 (ff.mul let503 let112)))
  (let ((let505 _46))
  (let ((let506 (ff.mul let505 let112)))
  (let ((let507 (ff.add let506 let504 let77)))
  (let ((let508 (ff.mul let507 let502)))
  (let ((let509 (= let508 let312)))
  (let ((let510 _39))
  (let ((let511 (ff.add let505 let503)))
  (let ((let512 (ff.mul let511 let510)))
  (let ((let513 (= let512 let313)))
  (let ((let514 _63))
  (let ((let515 (ff.mul let514 let196)))
  (let ((let516 (= let515 let200)))
  (let ((let517 (ff.mul let383 let112)))
  (let ((let518 (ff.add let517 let77)))
  (let ((let519 (ff.mul let215 let518)))
  (let ((let520 (= let519 let514)))
  (let ((let521 (ff.add let468 let246 let112)))
  (let ((let522 (ff.mul let521 let521)))
  (let ((let523 (= let522 let194)))
  (let ((let524 (ff.mul let335 let112)))
  (let ((let525 (ff.add let524 let392)))
  (let ((let526 (ff.mul let525 let525)))
  (let ((let527 (= let526 let246)))
  (let ((let528 _56))
  (let ((let529 (ff.mul let528 let510)))
  (let ((let530 (= let529 let392)))
  (let ((let531 _20))
  (let ((let532 _55))
  (let ((let533 (ff.mul let532 let531)))
  (let ((let534 (= let533 let528)))
  (let ((let535 (ff.mul let300 let518)))
  (let ((let536 (= let535 let532)))
  (let ((let537 (ff.add let204 let224 let299)))
  (let ((let538 (ff.mul let204 let224)))
  (let ((let539 (= let538 let537)))
  (let ((let540 (ff.add let506 let504 let486 let77)))
  (let ((let541 (ff.mul let540 let540)))
  (let ((let542 (= let541 let383)))
  (let ((let543 (ff.mul let531 let112)))
  (let ((let544 (ff.add let543 let331)))
  (let ((let545 (ff.mul let544 let544)))
  (let ((let546 (= let545 let289)))
  (let ((let547 (ff.mul let420 let112)))
  (let ((let548 (ff.add let547 let77)))
  (let ((let549 (ff.mul let548 let424)))
  (let ((let550 (= let549 let503)))
  (let ((let551 (ff.mul let420 let502)))
  (let ((let552 (= let551 let505)))
  (let ((let553 _41))
  (let ((let554 (ff.mul let553 let474)))
  (let ((let555 (= let554 let279)))
  (let ((let556 _40))
  (let ((let557 (ff.mul let556 let441)))
  (let ((let558 (= let557 let553)))
  (let ((let559 _7))
  (let ((let560 (ff.mul let559 let510)))
  (let ((let561 (= let560 let556)))
  (let ((let562 (ff.mul let510 let112)))
  (let ((let563 _38))
  (let ((let564 (ff.add let181 let563 let562)))
  (let ((let565 (ff.mul let563 let181)))
  (let ((let566 (= let565 let564)))
  (let ((let567 (ff.mul let563 let112)))
  (let ((let568 _37))
  (let ((let569 (ff.add let308 let568 let567)))
  (let ((let570 (ff.mul let568 let308)))
  (let ((let571 (= let570 let569)))
  (let ((let572 (ff.mul let568 let112)))
  (let ((let573 _36))
  (let ((let574 (ff.add let269 let573 let572)))
  (let ((let575 (ff.mul let573 let269)))
  (let ((let576 (= let575 let574)))
  (let ((let577 (ff.mul let573 let112)))
  (let ((let578 (ff.add let269 let502 let577)))
  (let ((let579 (ff.mul let502 let269)))
  (let ((let580 (= let579 let578)))
  (let ((let581 (ff.mul let502 let112)))
  (let ((let582 _34))
  (let ((let583 (ff.add let335 let582 let581)))
  (let ((let584 (ff.mul let582 let335)))
  (let ((let585 (= let584 let583)))
  (let ((let586 (ff.mul let582 let112)))
  (let ((let587 _33))
  (let ((let588 (ff.add let331 let587 let586)))
  (let ((let589 (ff.mul let587 let331)))
  (let ((let590 (= let589 let588)))
  (let ((let591 (ff.mul let587 let112)))
  (let ((let592 (ff.add let189 let304 let591)))
  (let ((let593 (ff.mul let304 let189)))
  (let ((let594 (= let593 let592)))
  (let ((let595 (ff.mul let331 let112)))
  (let ((let596 _31))
  (let ((let597 (ff.add let420 let596 let595)))
  (let ((let598 (ff.mul let596 let420)))
  (let ((let599 (= let598 let597)))
  (let ((let600 (ff.mul let596 let112)))
  (let ((let601 _30))
  (let ((let602 (ff.add let335 let601 let600)))
  (let ((let603 (ff.mul let601 let335)))
  (let ((let604 (= let603 let602)))
  (let ((let605 (ff.mul let601 let112)))
  (let ((let606 _29))
  (let ((let607 (ff.add let403 let606 let605)))
  (let ((let608 (ff.mul let606 let403)))
  (let ((let609 (= let608 let607)))
  (let ((let610 (ff.mul let606 let112)))
  (let ((let611 (ff.add let425 let308 let610)))
  (let ((let612 (ff.mul let308 let425)))
  (let ((let613 (= let612 let611)))
  (let ((let614 (ff.mul let269 let112)))
  (let ((let615 _27))
  (let ((let616 (ff.add let531 let615 let614)))
  (let ((let617 (ff.mul let615 let531)))
  (let ((let618 (= let617 let616)))
  (let ((let619 (ff.mul let615 let112)))
  (let ((let620 (ff.add let559 let216 let619)))
  (let ((let621 (ff.mul let216 let559)))
  (let ((let622 (= let621 let620)))
  (let ((let623 _25))
  (let ((let624 (ff.add let424 let623 let217)))
  (let ((let625 (ff.mul let623 let424)))
  (let ((let626 (= let625 let624)))
  (let ((let627 (ff.mul let623 let112)))
  (let ((let628 _24))
  (let ((let629 (ff.add let224 let628 let627)))
  (let ((let630 (ff.mul let628 let224)))
  (let ((let631 (= let630 let629)))
  (let ((let632 (ff.mul let628 let112)))
  (let ((let633 (ff.mul let480 let259)))
  (let ((let634 (ff.add let633 let632)))
  (let ((let635 (ff.mul let480 let480)))
  (let ((let636 (= let635 let634)))
  (let ((let637 (ff.mul let480 let112)))
  (let ((let638 (ff.mul let457 let112)))
  (let ((let639 (ff.add let559 let638 let637 let77)))
  (let ((let640 (ff.add let638 let77)))
  (let ((let641 (ff.mul let640 let559)))
  (let ((let642 (= let641 let639)))
  (let ((let643 (ff.add let457 let230 let397 let77)))
  (let ((let644 (ff.mul let232 let457)))
  (let ((let645 (= let644 let643)))
  (let ((let646 (ff.mul let304 let181)))
  (let ((let647 (= let646 let424)))
  (let ((let648 _19))
  (let ((let649 (ff.mul let648 let160)))
  (let ((let650 (= let649 let531)))
  (let ((let651 (ff.mul let229 let403)))
  (let ((let652 (= let651 let648)))
  (let ((let653 (ff.add let181 let190)))
  (let ((let654 (ff.mul let653 let653)))
  (let ((let655 (= let654 let157)))
  (let ((let656 (ff.mul let441 let112)))
  (let ((let657 (ff.add let474 let204 let656)))
  (let ((let658 (ff.mul let204 let474)))
  (let ((let659 (= let658 let657)))
  (let ((let660 (ff.mul let474 let112)))
  (let ((let661 (ff.add let660 let468)))
  (let ((let662 (ff.mul let661 let661)))
  (let ((let663 (= let662 let204)))
  (let ((let664 (ff.mul let468 let112)))
  (let ((let665 (ff.mul let435 let112)))
  (let ((let666 (ff.add let308 let665 let664 let77)))
  (let ((let667 (ff.add let665 let77)))
  (let ((let668 (ff.mul let667 let308)))
  (let ((let669 (= let668 let666)))
  (let ((let670 (ff.mul let420 let425)))
  (let ((let671 (= let670 let435)))
  (let ((let672 (ff.mul let229 let229)))
  (let ((let673 (= let672 let229)))
  (let ((let674 (ff.mul let304 let304)))
  (let ((let675 (= let674 let304)))
  (let ((let676 (ff.mul let457 let457)))
  (let ((let677 (= let676 let457)))
  (let ((let678 (ff.mul let474 let474)))
  (let ((let679 (= let678 let474)))
  (let ((let680 (ff.mul let559 let559)))
  (let ((let681 (= let680 let559)))
  (let ((let682 (ff.mul let189 let189)))
  (let ((let683 (= let682 let189)))
  (let ((let684 (ff.mul let335 let335)))
  (let ((let685 (= let684 let335)))
  (let ((let686 (ff.mul let308 let308)))
  (let ((let687 (= let686 let308)))
  (let ((let688 (ff.mul let181 let181)))
  (let ((let689 (= let688 let181)))
  (let ((let690 (ff.mul let425 let425)))
  (let ((let691 (= let690 let425)))
  (let ((let692 (ff.mul let403 let403)))
  (let ((let693 (= let692 let403)))
  (let ((let694 (ff.mul let420 let420)))
  (let ((let695 (= let694 let420)))
  (let ((let696 (and let695 let693 let691 let689 let687 let685 let683 let681 let679 let677 let675 let673 let671 let669 let663 let659 let655 let652 let650 let647 let645 let642 let636 let631 let626 let622 let618 let613 let609 let604 let599 let594 let590 let585 let580 let576 let571 let566 let561 let558 let555 let552 let550 let546 let542 let539 let536 let534 let530 let527 let523 let520 let516 let513 let509 let501 let494 let490 let483 let477 let471 let465 let460 let454 let449 let444 let438 let432 let427 let423 let419 let416 let411 let408 let401 let396 let390 let388 let386 let382 let378 let373 let368 let363 let358 let352 let347 let342 let337 let334 let330 let327 let324 let320 let317 let311 let307 let303 let298 let295 let291 let285 let282 let278 let272 let267 let262 let258 let250 let243 let240 let234 let227 let222 let220 let214 let208 let203 let199 let193 let184 let178 let174 let171 let168 let162 let154 let148 let142 let136 let132 let126 let118 let111 let105 let99 let95 let89 let85)))
  (let ((let697 (ite let22 let77 let80)))
  (let ((let698 (= let335 let697)))
  (let ((let699 (ite let12 let77 let80)))
  (let ((let700 (= let229 let699)))
  (let ((let701 (ite let2 let77 let80)))
  (let ((let702 (= let425 let701)))
  (let ((let703 (ite let17 let77 let80)))
  (let ((let704 (= let457 let703)))
  (let ((let705 (ite let0 let77 let80)))
  (let ((let706 (= let474 let705)))
  (let ((let707 (ite let14 let77 let80)))
  (let ((let708 (= let559 let707)))
  (let ((let709 (ite let1 let77 let80)))
  (let ((let710 (= let308 let709)))
  (let ((let711 (ite let8 let77 let80)))
  (let ((let712 (= let181 let711)))
  (let ((let713 (ite let3 let77 let80)))
  (let ((let714 (= let420 let713)))
  (let ((let715 (ite let11 let77 let80)))
  (let ((let716 (= let403 let715)))
  (let ((let717 (ite let9 let77 let80)))
  (let ((let718 (= let189 let717)))
  (let ((let719 (ite let15 let77 let80)))
  (let ((let720 (= let304 let719)))
  (let ((let721 (and let720 let718 let716 let714 let712 let710 let708 let706 let704 let702 let700 let698)))
  (let ((let722 (and let721 let696)))
  (let ((let723 (=> let722 let83)))
  (let ((let724 (not let723)))
  let724
)))))))))))))))))))))))))))))))))))))))))))))))))))))))))))))))))))))))))))))))))))))))))))))))))))))))))))))))))))))))))))))))))))))))))))))))))))))))))))))))))))))))))))))))))))))))))))))))))))))))))))))))))))))))))))))))))))))))))))))))))))))))))))))))))))))))))))))))))))))))))))))))))))))))))))))))))))))))))))))))))))))))))))))))))))))))))))))))))))))))))))))))))))))))))))))))))))))))))))))))))))))))))))))))))))))))))))))))))))))))))))))))))))))))))))))))))))))))))))))))))))))))))))))))))))))))))))))))))))))))))))))))))))))))))))))))))))))))))))))))))))))))))))))))))))))))))))))))))))))))))))))))))))))))))))))))))))))))))))))))))))))))))))))))))))))))))))))))))))))))))))))))))))))))))))))))))))))))))))))))))))))
)
(check-sat)
